
;this file is automatically generated: Mon Feb 10 17:01:40 CST 2020

;declarations generated

(declare-fun type_4dd99c0c_a93d_4aec_afb8_52a3af23314c_Class48 ( Int) Bool)
(declare-fun type_4dd99c0c_a93d_4aec_afb8_52a3af23314c_Class46 ( Int) Bool)
(declare-fun oclExcludes ( Int Int) Bool)
(declare-fun class8_Class8IntAttr4 ( Int) Int)
(declare-fun class8_Class8IntAttr3 ( Int) Int)
(declare-fun type_4dd99c0c_a93d_4aec_afb8_52a3af23314c_Class26 ( Int) Bool)
(declare-fun Cardinality ( Int) Int)
(declare-fun type_4dd99c0c_a93d_4aec_afb8_52a3af23314c_Class19 ( Int) Bool)
(declare-fun obj_703ef0e3_63a3_4b28_82f5_547abb1c703a ( Int) Int)
(declare-fun class8_Class8BoolAttr2 ( Int) Bool)
(declare-fun class8_Class8BoolAttr0 ( Int) Bool)
(declare-fun oclSelect ( Int Bool) Int)
(declare-fun type_4dd99c0c_a93d_4aec_afb8_52a3af23314c_Class2 ( Int) Bool)
(declare-fun type_4dd99c0c_a93d_4aec_afb8_52a3af23314c_Class8 ( Int) Bool)
(declare-fun type_4dd99c0c_a93d_4aec_afb8_52a3af23314c_Class5 ( Int) Bool)
(declare-fun Enum0 ( Int) Int)
(declare-fun Enum1 ( Int) Int)
(declare-fun Enum2 ( Int) Int)
(declare-fun container_ ( Int) Int)
(declare-fun oclIncludes ( Int Int) Bool)
(declare-fun ObjAt ( Int Int) Int)

;formula(s) generated
(assert (! (forall ((c8_2 Int)(c8_1 Int)) (=> (and (and (and (and (and (and (and ( type_4dd99c0c_a93d_4aec_afb8_52a3af23314c_Class8 c8_1 )  ( type_4dd99c0c_a93d_4aec_afb8_52a3af23314c_Class46 c8_1 ) ) ( type_4dd99c0c_a93d_4aec_afb8_52a3af23314c_Class26 c8_1 ) ) ( type_4dd99c0c_a93d_4aec_afb8_52a3af23314c_Class48 c8_1 ) ) ( type_4dd99c0c_a93d_4aec_afb8_52a3af23314c_Class5 c8_1 ) ) ( type_4dd99c0c_a93d_4aec_afb8_52a3af23314c_Class19 c8_1 ) ) ( type_4dd99c0c_a93d_4aec_afb8_52a3af23314c_Class2 c8_1 ) ) (and (and (and (and (and (and ( type_4dd99c0c_a93d_4aec_afb8_52a3af23314c_Class8 c8_2 )  ( type_4dd99c0c_a93d_4aec_afb8_52a3af23314c_Class46 c8_2 ) ) ( type_4dd99c0c_a93d_4aec_afb8_52a3af23314c_Class26 c8_2 ) ) ( type_4dd99c0c_a93d_4aec_afb8_52a3af23314c_Class48 c8_2 ) ) ( type_4dd99c0c_a93d_4aec_afb8_52a3af23314c_Class5 c8_2 ) ) ( type_4dd99c0c_a93d_4aec_afb8_52a3af23314c_Class19 c8_2 ) ) ( type_4dd99c0c_a93d_4aec_afb8_52a3af23314c_Class2 c8_2 ) )) (= ( class8_Class8IntAttr3 ( obj_703ef0e3_63a3_4b28_82f5_547abb1c703a c8_1 )  )  ( class8_Class8IntAttr4 ( obj_703ef0e3_63a3_4b28_82f5_547abb1c703a c8_2 )  ) ))):named l0))
(assert (! (or (forall ((v Int)) (=> (and (and (and (and (and (and ( type_4dd99c0c_a93d_4aec_afb8_52a3af23314c_Class8 v )  ( type_4dd99c0c_a93d_4aec_afb8_52a3af23314c_Class46 v ) ) ( type_4dd99c0c_a93d_4aec_afb8_52a3af23314c_Class26 v ) ) ( type_4dd99c0c_a93d_4aec_afb8_52a3af23314c_Class48 v ) ) ( type_4dd99c0c_a93d_4aec_afb8_52a3af23314c_Class5 v ) ) ( type_4dd99c0c_a93d_4aec_afb8_52a3af23314c_Class19 v ) ) ( type_4dd99c0c_a93d_4aec_afb8_52a3af23314c_Class2 v ) ) (and ( class8_Class8BoolAttr2 ( obj_703ef0e3_63a3_4b28_82f5_547abb1c703a v )  )  (and (forall ((v Int)) (=> (and (and (and (and (and (and ( type_4dd99c0c_a93d_4aec_afb8_52a3af23314c_Class8 v )  ( type_4dd99c0c_a93d_4aec_afb8_52a3af23314c_Class46 v ) ) ( type_4dd99c0c_a93d_4aec_afb8_52a3af23314c_Class26 v ) ) ( type_4dd99c0c_a93d_4aec_afb8_52a3af23314c_Class48 v ) ) ( type_4dd99c0c_a93d_4aec_afb8_52a3af23314c_Class5 v ) ) ( type_4dd99c0c_a93d_4aec_afb8_52a3af23314c_Class19 v ) ) ( type_4dd99c0c_a93d_4aec_afb8_52a3af23314c_Class2 v ) ) (not ( class8_Class8BoolAttr0 ( obj_703ef0e3_63a3_4b28_82f5_547abb1c703a v )  )  ))) (forall ((v Int)) (=> (and (and (and (and (and (and ( type_4dd99c0c_a93d_4aec_afb8_52a3af23314c_Class8 v )  ( type_4dd99c0c_a93d_4aec_afb8_52a3af23314c_Class46 v ) ) ( type_4dd99c0c_a93d_4aec_afb8_52a3af23314c_Class26 v ) ) ( type_4dd99c0c_a93d_4aec_afb8_52a3af23314c_Class48 v ) ) ( type_4dd99c0c_a93d_4aec_afb8_52a3af23314c_Class5 v ) ) ( type_4dd99c0c_a93d_4aec_afb8_52a3af23314c_Class19 v ) ) ( type_4dd99c0c_a93d_4aec_afb8_52a3af23314c_Class2 v ) ) ( class8_Class8BoolAttr0 ( obj_703ef0e3_63a3_4b28_82f5_547abb1c703a v )  ) )))))) (forall ((c8_2 Int)(c8_1 Int)) (=> (and (and (and (and (and (and (and ( type_4dd99c0c_a93d_4aec_afb8_52a3af23314c_Class8 c8_1 )  ( type_4dd99c0c_a93d_4aec_afb8_52a3af23314c_Class46 c8_1 ) ) ( type_4dd99c0c_a93d_4aec_afb8_52a3af23314c_Class26 c8_1 ) ) ( type_4dd99c0c_a93d_4aec_afb8_52a3af23314c_Class48 c8_1 ) ) ( type_4dd99c0c_a93d_4aec_afb8_52a3af23314c_Class5 c8_1 ) ) ( type_4dd99c0c_a93d_4aec_afb8_52a3af23314c_Class19 c8_1 ) ) ( type_4dd99c0c_a93d_4aec_afb8_52a3af23314c_Class2 c8_1 ) ) (and (and (and (and (and (and ( type_4dd99c0c_a93d_4aec_afb8_52a3af23314c_Class8 c8_2 )  ( type_4dd99c0c_a93d_4aec_afb8_52a3af23314c_Class46 c8_2 ) ) ( type_4dd99c0c_a93d_4aec_afb8_52a3af23314c_Class26 c8_2 ) ) ( type_4dd99c0c_a93d_4aec_afb8_52a3af23314c_Class48 c8_2 ) ) ( type_4dd99c0c_a93d_4aec_afb8_52a3af23314c_Class5 c8_2 ) ) ( type_4dd99c0c_a93d_4aec_afb8_52a3af23314c_Class19 c8_2 ) ) ( type_4dd99c0c_a93d_4aec_afb8_52a3af23314c_Class2 c8_2 ) )) (>= ( class8_Class8IntAttr3 ( obj_703ef0e3_63a3_4b28_82f5_547abb1c703a c8_1 )  )  ( class8_Class8IntAttr4 ( obj_703ef0e3_63a3_4b28_82f5_547abb1c703a c8_2 )  ) )))):named l1))
(assert (! (or (forall ((v Int)) (=> (and (and (and (and (and (and ( type_4dd99c0c_a93d_4aec_afb8_52a3af23314c_Class8 v )  ( type_4dd99c0c_a93d_4aec_afb8_52a3af23314c_Class46 v ) ) ( type_4dd99c0c_a93d_4aec_afb8_52a3af23314c_Class26 v ) ) ( type_4dd99c0c_a93d_4aec_afb8_52a3af23314c_Class48 v ) ) ( type_4dd99c0c_a93d_4aec_afb8_52a3af23314c_Class5 v ) ) ( type_4dd99c0c_a93d_4aec_afb8_52a3af23314c_Class19 v ) ) ( type_4dd99c0c_a93d_4aec_afb8_52a3af23314c_Class2 v ) ) ( class8_Class8BoolAttr2 ( obj_703ef0e3_63a3_4b28_82f5_547abb1c703a v )  ) )) (forall ((v Int)) (=> (and (and (and (and (and (and ( type_4dd99c0c_a93d_4aec_afb8_52a3af23314c_Class8 v )  ( type_4dd99c0c_a93d_4aec_afb8_52a3af23314c_Class46 v ) ) ( type_4dd99c0c_a93d_4aec_afb8_52a3af23314c_Class26 v ) ) ( type_4dd99c0c_a93d_4aec_afb8_52a3af23314c_Class48 v ) ) ( type_4dd99c0c_a93d_4aec_afb8_52a3af23314c_Class5 v ) ) ( type_4dd99c0c_a93d_4aec_afb8_52a3af23314c_Class19 v ) ) ( type_4dd99c0c_a93d_4aec_afb8_52a3af23314c_Class2 v ) ) ( class8_Class8BoolAttr0 ( obj_703ef0e3_63a3_4b28_82f5_547abb1c703a v )  ) ))):named l2))
(assert (! (forall ((v Int)) (=> (and (and (and (and (and (and ( type_4dd99c0c_a93d_4aec_afb8_52a3af23314c_Class8 v )  ( type_4dd99c0c_a93d_4aec_afb8_52a3af23314c_Class46 v ) ) ( type_4dd99c0c_a93d_4aec_afb8_52a3af23314c_Class26 v ) ) ( type_4dd99c0c_a93d_4aec_afb8_52a3af23314c_Class48 v ) ) ( type_4dd99c0c_a93d_4aec_afb8_52a3af23314c_Class5 v ) ) ( type_4dd99c0c_a93d_4aec_afb8_52a3af23314c_Class19 v ) ) ( type_4dd99c0c_a93d_4aec_afb8_52a3af23314c_Class2 v ) ) (= ( class8_Class8IntAttr3 ( obj_703ef0e3_63a3_4b28_82f5_547abb1c703a v )  )  18))):named l3))
(assert (exists ((o Int)) (and (and (and (and (and (and ( type_4dd99c0c_a93d_4aec_afb8_52a3af23314c_Class8 ( obj_703ef0e3_63a3_4b28_82f5_547abb1c703a o )  )  ( type_4dd99c0c_a93d_4aec_afb8_52a3af23314c_Class46 ( obj_703ef0e3_63a3_4b28_82f5_547abb1c703a o )  ) ) ( type_4dd99c0c_a93d_4aec_afb8_52a3af23314c_Class26 ( obj_703ef0e3_63a3_4b28_82f5_547abb1c703a o )  ) ) ( type_4dd99c0c_a93d_4aec_afb8_52a3af23314c_Class48 ( obj_703ef0e3_63a3_4b28_82f5_547abb1c703a o )  ) ) ( type_4dd99c0c_a93d_4aec_afb8_52a3af23314c_Class5 ( obj_703ef0e3_63a3_4b28_82f5_547abb1c703a o )  ) ) ( type_4dd99c0c_a93d_4aec_afb8_52a3af23314c_Class19 ( obj_703ef0e3_63a3_4b28_82f5_547abb1c703a o )  ) ) ( type_4dd99c0c_a93d_4aec_afb8_52a3af23314c_Class2 ( obj_703ef0e3_63a3_4b28_82f5_547abb1c703a o )  ) )))

 ;end of formula 